30
58
24
75
78
26
137
61
18
30
10
71
136
82
37
26
132
62
78
31
20
29
80
105
30
53
114
14
40
130
35
30
43
109
11
0
66
161
31
74
35
72
57
102
22
16
82
45
20
142
61
16
10
102
83
65
100
76
51
143
39
89
120
58
27
29
65
74
30
20
166
99
17
15
56
20
34
149
58
26
82
59
52
30
31
130
15
0
95
84
12
70
14
25
37
86
30
99
41
63
